Traveling Salesman Problem/TSP_generados/Aleatorio1621103323_10.tsp
NAME: Aleatorio1621103323_10.tsp
COMMENT: Randomly generated scenario
TYPE: TSP
DIMENSION: 10
EDGE_WEIGHT_TYPE: ATT
NODE_COORD_SECTION
1 25.43 0.24
2 35.52 12.18
3 35.67 36.71
4 25.3 4.64
5 8.49 49.98
6 19.32 32.0
7 45.41 4.34
8 47.47 32.83
9 46.68 25.89
10 23.24 13.07
