Traveling Salesman Problem/TSP_generados/Aleatorio1621103323_10.opt.tour
NAME: Aleatorio1621103323_10.opt.tour
COMMENT: Optimal solution for Aleatorio1621103323_10 (152.89439186107322)
TYPE: TOUR
DIMENSION: 10
TOUR_SECTION
1 2 7 9 8 3 5 6 10 4
-1
EOF
